
Gurobi 8.1.1 (mac64, Python) logging started Tue Aug 16 14:02:27 2022

Academic license - for non-commercial use only

Gurobi 8.1.1 (mac64, Python) logging started Wed Nov  2 12:49:23 2022

Academic license - for non-commercial use only

Gurobi 8.1.1 (mac64, Python) logging started Wed Nov  2 12:50:26 2022

Academic license - for non-commercial use only

Gurobi 8.1.1 (mac64, Python) logging started Wed Nov  2 12:50:57 2022

Academic license - for non-commercial use only

Gurobi 8.1.1 (mac64, Python) logging started Wed Nov  2 12:54:43 2022

Academic license - for non-commercial use only

Gurobi 8.1.1 (mac64, Python) logging started Wed Nov  2 12:57:00 2022

Academic license - for non-commercial use only

Gurobi 8.1.1 (mac64, Python) logging started Wed Nov  2 12:57:37 2022

Academic license - for non-commercial use only

Gurobi 8.1.1 (mac64, Python) logging started Wed Nov  2 13:16:19 2022

Academic license - for non-commercial use only

Gurobi 8.1.1 (mac64, Python) logging started Wed Nov  2 13:22:54 2022

Academic license - for non-commercial use only

Gurobi 8.1.1 (mac64, Python) logging started Wed Nov  2 13:25:54 2022

Academic license - for non-commercial use only

Gurobi 8.1.1 (mac64, Python) logging started Wed Nov  2 13:46:41 2022

Academic license - for non-commercial use only

Gurobi 8.1.1 (mac64, Python) logging started Wed Nov  2 13:51:04 2022

Academic license - for non-commercial use only

Gurobi 8.1.1 (mac64, Python) logging started Thu Nov  3 11:19:54 2022

Academic license - for non-commercial use only

Gurobi 8.1.1 (mac64, Python) logging started Thu Nov  3 11:23:53 2022

Academic license - for non-commercial use only

Gurobi 8.1.1 (mac64, Python) logging started Thu Nov  3 11:26:08 2022

Academic license - for non-commercial use only

Gurobi 8.1.1 (mac64, Python) logging started Thu Nov  3 11:27:04 2022

Academic license - for non-commercial use only

Gurobi 8.1.1 (mac64, Python) logging started Thu Nov  3 11:42:30 2022

Academic license - for non-commercial use only

Gurobi 8.1.1 (mac64, Python) logging started Thu Nov  3 12:08:33 2022

Academic license - for non-commercial use only

Gurobi 8.1.1 (mac64, Python) logging started Thu Nov  3 12:16:13 2022

Academic license - for non-commercial use only

Gurobi 8.1.1 (mac64, Python) logging started Thu Nov  3 12:18:26 2022

Academic license - for non-commercial use only

Gurobi 8.1.1 (mac64, Python) logging started Thu Nov  3 13:56:26 2022

Academic license - for non-commercial use only

Gurobi 8.1.1 (mac64, Python) logging started Thu Nov  3 17:40:27 2022

Academic license - for non-commercial use only

Gurobi 8.1.1 (mac64, Python) logging started Thu Nov  3 18:01:11 2022

Academic license - for non-commercial use only

Gurobi 8.1.1 (mac64, Python) logging started Fri Nov  4 19:46:37 2022

Academic license - for non-commercial use only

Gurobi 8.1.1 (mac64, Python) logging started Sat Nov  5 12:24:07 2022

Academic license - for non-commercial use only

Gurobi 8.1.1 (mac64, Python) logging started Sun Nov  6 18:55:41 2022

Academic license - for non-commercial use only

Gurobi 8.1.1 (mac64, Python) logging started Sun Nov  6 19:01:07 2022

Academic license - for non-commercial use only

Gurobi 8.1.1 (mac64, Python) logging started Mon Nov  7 11:38:35 2022

Academic license - for non-commercial use only

Gurobi 8.1.1 (mac64, Python) logging started Thu Nov 10 12:50:05 2022

Academic license - for non-commercial use only

Gurobi 8.1.1 (mac64, Python) logging started Thu Nov 10 13:23:29 2022

Academic license - for non-commercial use only

Gurobi 8.1.1 (mac64, Python) logging started Thu Nov 10 13:39:56 2022

Academic license - for non-commercial use only

Gurobi 8.1.1 (mac64, Python) logging started Fri Nov 11 10:10:47 2022

Academic license - for non-commercial use only

Gurobi 8.1.1 (mac64, Python) logging started Fri Nov 11 10:11:46 2022

Academic license - for non-commercial use only

Gurobi 8.1.1 (mac64, Python) logging started Fri Nov 11 13:28:55 2022

Academic license - for non-commercial use only

Gurobi 8.1.1 (mac64, Python) logging started Fri Nov 11 13:30:35 2022

Academic license - for non-commercial use only

Gurobi 8.1.1 (mac64, Python) logging started Fri Nov 11 13:40:50 2022

Academic license - for non-commercial use only

Gurobi 8.1.1 (mac64, Python) logging started Fri Nov 11 13:41:30 2022

Academic license - for non-commercial use only

Gurobi 8.1.1 (mac64, Python) logging started Fri Nov 11 14:02:40 2022

Academic license - for non-commercial use only

Gurobi 8.1.1 (mac64, Python) logging started Sat Nov 12 12:07:15 2022

Academic license - for non-commercial use only

Gurobi 8.1.1 (mac64, Python) logging started Wed Mar 22 15:12:52 2023

Academic license - for non-commercial use only

Gurobi 8.1.1 (mac64, Python) logging started Wed Mar 22 15:30:35 2023

Academic license - for non-commercial use only

Gurobi 8.1.1 (mac64, Python) logging started Wed Mar 22 15:31:25 2023

Academic license - for non-commercial use only

Gurobi 8.1.1 (mac64, Python) logging started Wed Mar 22 15:43:18 2023

Academic license - for non-commercial use only

Gurobi 8.1.1 (mac64, Python) logging started Wed Mar 22 16:46:07 2023

Academic license - for non-commercial use only

Gurobi 8.1.1 (mac64, Python) logging started Fri Mar 24 11:35:45 2023

Academic license - for non-commercial use only

Gurobi 8.1.1 (mac64, Python) logging started Fri Mar 24 12:44:41 2023

Academic license - for non-commercial use only

Gurobi 8.1.1 (mac64, Python) logging started Fri Mar 24 12:46:19 2023

Academic license - for non-commercial use only

Gurobi 8.1.1 (mac64, Python) logging started Fri Mar 24 21:12:26 2023

Academic license - for non-commercial use only

Gurobi 8.1.1 (mac64, Python) logging started Sat Mar 25 09:01:14 2023

Academic license - for non-commercial use only

Gurobi 8.1.1 (mac64, Python) logging started Sat Mar 25 09:02:01 2023

Academic license - for non-commercial use only

Gurobi 8.1.1 (mac64, Python) logging started Sat Mar 25 09:04:16 2023

Academic license - for non-commercial use only

Gurobi 8.1.1 (mac64, Python) logging started Sat Mar 25 09:07:24 2023

Academic license - for non-commercial use only

Gurobi 8.1.1 (mac64, Python) logging started Sat Mar 25 09:12:24 2023

Academic license - for non-commercial use only

Gurobi 8.1.1 (mac64, Python) logging started Mon Mar 27 21:48:59 2023

Academic license - for non-commercial use only

Gurobi 8.1.1 (mac64, Python) logging started Mon Mar 27 21:49:31 2023

Academic license - for non-commercial use only

Gurobi 8.1.1 (mac64, Python) logging started Tue Mar 28 10:18:47 2023

Academic license - for non-commercial use only

Gurobi 8.1.1 (mac64, Python) logging started Wed Mar 29 00:39:11 2023

Academic license - for non-commercial use only

Gurobi 8.1.1 (mac64, Python) logging started Tue Mar 12 11:05:23 2024

Academic license - for non-commercial use only

Gurobi 8.1.1 (mac64, Python) logging started Tue Mar 12 11:26:34 2024

Academic license - for non-commercial use only

Gurobi 8.1.1 (mac64, Python) logging started Tue Mar 12 17:32:32 2024

Academic license - for non-commercial use only

Gurobi 8.1.1 (mac64, Python) logging started Tue Mar 12 17:35:16 2024

Academic license - for non-commercial use only

Gurobi 8.1.1 (mac64, Python) logging started Tue Mar 12 18:37:47 2024

Academic license - for non-commercial use only

Gurobi 8.1.1 (mac64, Python) logging started Tue Mar 12 19:17:40 2024

Academic license - for non-commercial use only

Gurobi 8.1.1 (mac64, Python) logging started Tue Mar 12 19:31:47 2024

Academic license - for non-commercial use only

Gurobi 8.1.1 (mac64, Python) logging started Tue Mar 12 19:32:21 2024

Academic license - for non-commercial use only

Gurobi 8.1.1 (mac64, Python) logging started Tue Mar 12 20:48:16 2024

Academic license - for non-commercial use only

Gurobi 8.1.1 (mac64, Python) logging started Wed Mar 13 08:58:39 2024

Academic license - for non-commercial use only

Gurobi 8.1.1 (mac64, Python) logging started Wed Mar 13 09:23:50 2024

Academic license - for non-commercial use only

Gurobi 8.1.1 (mac64, Python) logging started Mon Mar 18 17:46:30 2024

Academic license - for non-commercial use only

Gurobi 8.1.1 (mac64, Python) logging started Mon Mar 18 17:47:54 2024

Academic license - for non-commercial use only

Gurobi 8.1.1 (mac64, Python) logging started Mon Mar 18 18:03:54 2024

Academic license - for non-commercial use only

Gurobi 8.1.1 (mac64, Python) logging started Mon Mar 18 18:53:08 2024

Academic license - for non-commercial use only

Gurobi 8.1.1 (mac64, Python) logging started Mon Mar 18 18:54:13 2024

Academic license - for non-commercial use only

Gurobi 8.1.1 (mac64, Python) logging started Mon Mar 18 19:00:56 2024

Academic license - for non-commercial use only

Gurobi 8.1.1 (mac64, Python) logging started Mon Mar 18 19:12:17 2024

Academic license - for non-commercial use only

Gurobi 8.1.1 (mac64, Python) logging started Mon Mar 18 20:19:07 2024

Academic license - for non-commercial use only

Gurobi 8.1.1 (mac64, Python) logging started Mon Mar 18 20:20:46 2024

Academic license - for non-commercial use only

Gurobi 8.1.1 (mac64, Python) logging started Tue Mar 19 15:46:32 2024

Academic license - for non-commercial use only

Gurobi 8.1.1 (mac64, Python) logging started Tue Mar 19 15:48:58 2024

Academic license - for non-commercial use only

Gurobi 8.1.1 (mac64, Python) logging started Tue Mar 19 15:49:56 2024

Academic license - for non-commercial use only

Gurobi 8.1.1 (mac64, Python) logging started Tue Mar 19 15:51:02 2024

Academic license - for non-commercial use only

Gurobi 8.1.1 (mac64, Python) logging started Tue Mar 19 15:57:57 2024

Academic license - for non-commercial use only

Gurobi 8.1.1 (mac64, Python) logging started Tue Mar 19 15:58:33 2024

Academic license - for non-commercial use only

Gurobi 8.1.1 (mac64, Python) logging started Tue Mar 19 16:05:30 2024

Academic license - for non-commercial use only

Gurobi 8.1.1 (mac64, Python) logging started Tue Mar 19 16:27:29 2024

Academic license - for non-commercial use only

Gurobi 8.1.1 (mac64, Python) logging started Tue Mar 19 16:27:35 2024

Academic license - for non-commercial use only

Gurobi 8.1.1 (mac64, Python) logging started Tue Mar 19 16:29:12 2024

Academic license - for non-commercial use only

Gurobi 8.1.1 (mac64, Python) logging started Tue Mar 19 16:35:15 2024

Academic license - for non-commercial use only

Gurobi 8.1.1 (mac64, Python) logging started Fri Apr 19 21:19:54 2024

Academic license - for non-commercial use only

Gurobi 8.1.1 (mac64, Python) logging started Fri Apr 19 21:20:53 2024

Academic license - for non-commercial use only

Gurobi 8.1.1 (mac64, Python) logging started Fri Apr 19 21:27:38 2024

Academic license - for non-commercial use only

Gurobi 8.1.1 (mac64, Python) logging started Fri Apr 19 21:28:00 2024

Academic license - for non-commercial use only

Gurobi 8.1.1 (mac64, Python) logging started Fri Apr 19 21:33:49 2024

Academic license - for non-commercial use only

Gurobi 8.1.1 (mac64, Python) logging started Fri Apr 19 21:58:00 2024

Academic license - for non-commercial use only

Gurobi 8.1.1 (mac64, Python) logging started Fri Apr 19 22:18:10 2024

Academic license - for non-commercial use only

Gurobi 8.1.1 (mac64, Python) logging started Fri Apr 19 22:20:13 2024

Academic license - for non-commercial use only

Gurobi 8.1.1 (mac64, Python) logging started Sat Apr 20 00:25:11 2024

Academic license - for non-commercial use only

Gurobi 8.1.1 (mac64, Python) logging started Sat Apr 20 10:35:21 2024

Academic license - for non-commercial use only

Gurobi 8.1.1 (mac64, Python) logging started Sat Apr 20 11:03:28 2024

Academic license - for non-commercial use only

Gurobi 8.1.1 (mac64, Python) logging started Sat Apr 20 11:05:05 2024

Academic license - for non-commercial use only

Gurobi 8.1.1 (mac64, Python) logging started Thu May  2 13:07:43 2024

Academic license - for non-commercial use only

Gurobi 8.1.1 (mac64, Python) logging started Thu May  2 13:23:24 2024

Academic license - for non-commercial use only

Gurobi 8.1.1 (mac64, Python) logging started Thu May  2 15:06:41 2024

Academic license - for non-commercial use only

Gurobi 8.1.1 (mac64, Python) logging started Thu May  2 15:07:30 2024

Academic license - for non-commercial use only

Gurobi 8.1.1 (mac64, Python) logging started Thu May  2 15:09:40 2024

Academic license - for non-commercial use only

Gurobi 8.1.1 (mac64, Python) logging started Thu May  2 15:10:22 2024

Academic license - for non-commercial use only

Gurobi 8.1.1 (mac64, Python) logging started Fri May  3 10:45:54 2024

Academic license - for non-commercial use only

Gurobi 8.1.1 (mac64, Python) logging started Fri May  3 10:46:04 2024

Academic license - for non-commercial use only

Gurobi 8.1.1 (mac64, Python) logging started Fri May  3 10:47:43 2024

Academic license - for non-commercial use only

Gurobi 8.1.1 (mac64, Python) logging started Fri May  3 11:01:14 2024

Academic license - for non-commercial use only

Gurobi 8.1.1 (mac64, Python) logging started Mon May  6 11:20:56 2024

Academic license - for non-commercial use only

Gurobi 8.1.1 (mac64, Python) logging started Mon May  6 14:44:30 2024

Academic license - for non-commercial use only

Gurobi 8.1.1 (mac64, Python) logging started Mon May  6 16:50:10 2024

Academic license - for non-commercial use only

Gurobi 8.1.1 (mac64, Python) logging started Mon May  6 16:50:33 2024

Academic license - for non-commercial use only

Gurobi 8.1.1 (mac64, Python) logging started Mon May  6 16:51:17 2024

Academic license - for non-commercial use only

Gurobi 8.1.1 (mac64, Python) logging started Mon May  6 16:51:47 2024

Academic license - for non-commercial use only

Gurobi 8.1.1 (mac64, Python) logging started Mon May  6 16:54:19 2024

Academic license - for non-commercial use only

Gurobi 8.1.1 (mac64, Python) logging started Mon May  6 16:55:25 2024

Academic license - for non-commercial use only

Gurobi 8.1.1 (mac64, Python) logging started Mon May  6 17:00:13 2024

Academic license - for non-commercial use only

Gurobi 8.1.1 (mac64, Python) logging started Mon May  6 17:35:18 2024

Academic license - for non-commercial use only

Gurobi 8.1.1 (mac64, Python) logging started Mon May  6 19:23:43 2024

Academic license - for non-commercial use only

Gurobi 8.1.1 (mac64, Python) logging started Tue May  7 11:38:05 2024

Academic license - for non-commercial use only

Gurobi 8.1.1 (mac64, Python) logging started Tue May  7 11:40:06 2024

Academic license - for non-commercial use only

Gurobi 8.1.1 (mac64, Python) logging started Tue May  7 11:44:32 2024

Academic license - for non-commercial use only

Gurobi 8.1.1 (mac64, Python) logging started Wed May  8 10:51:22 2024

Academic license - for non-commercial use only

Gurobi 8.1.1 (mac64, Python) logging started Wed May  8 10:53:49 2024

Academic license - for non-commercial use only

Gurobi 8.1.1 (mac64, Python) logging started Wed May  8 11:01:03 2024

Academic license - for non-commercial use only

Gurobi 8.1.1 (mac64, Python) logging started Wed May  8 11:01:25 2024

Academic license - for non-commercial use only

Gurobi 8.1.1 (mac64, Python) logging started Wed May  8 11:13:43 2024

Academic license - for non-commercial use only

Gurobi 8.1.1 (mac64, Python) logging started Wed May  8 11:16:37 2024

Academic license - for non-commercial use only

Gurobi 8.1.1 (mac64, Python) logging started Wed May  8 11:20:27 2024

Academic license - for non-commercial use only

Gurobi 8.1.1 (mac64, Python) logging started Wed May  8 11:21:40 2024

Academic license - for non-commercial use only

Gurobi 8.1.1 (mac64, Python) logging started Wed May  8 11:21:51 2024

Academic license - for non-commercial use only

Gurobi 8.1.1 (mac64, Python) logging started Wed May  8 11:22:40 2024

Academic license - for non-commercial use only

Gurobi 8.1.1 (mac64, Python) logging started Wed May  8 11:24:51 2024

Academic license - for non-commercial use only

Gurobi 8.1.1 (mac64, Python) logging started Wed May  8 11:25:11 2024

Academic license - for non-commercial use only

Gurobi 8.1.1 (mac64, Python) logging started Wed May  8 11:25:52 2024

Academic license - for non-commercial use only

Gurobi 8.1.1 (mac64, Python) logging started Wed May  8 11:26:13 2024

Academic license - for non-commercial use only

Gurobi 8.1.1 (mac64, Python) logging started Wed May  8 11:26:42 2024

Academic license - for non-commercial use only

Gurobi 8.1.1 (mac64, Python) logging started Wed May  8 11:27:30 2024

Academic license - for non-commercial use only

Gurobi 8.1.1 (mac64, Python) logging started Wed May  8 11:27:35 2024

Academic license - for non-commercial use only

Gurobi 8.1.1 (mac64, Python) logging started Thu May  9 09:53:01 2024

Academic license - for non-commercial use only

Gurobi 8.1.1 (mac64, Python) logging started Thu May  9 10:04:51 2024

Academic license - for non-commercial use only

Gurobi 8.1.1 (mac64, Python) logging started Thu May  9 10:05:08 2024

Academic license - for non-commercial use only

Gurobi 8.1.1 (mac64, Python) logging started Thu May  9 10:05:32 2024

Academic license - for non-commercial use only

Gurobi 8.1.1 (mac64, Python) logging started Thu May  9 10:05:51 2024

Academic license - for non-commercial use only

Gurobi 8.1.1 (mac64, Python) logging started Thu May  9 10:07:32 2024

Academic license - for non-commercial use only

Gurobi 8.1.1 (mac64, Python) logging started Thu May  9 10:07:54 2024

Academic license - for non-commercial use only

Gurobi 8.1.1 (mac64, Python) logging started Thu May  9 10:10:10 2024

Academic license - for non-commercial use only

Gurobi 8.1.1 (mac64, Python) logging started Thu May  9 10:16:14 2024

Academic license - for non-commercial use only

Gurobi 8.1.1 (mac64, Python) logging started Thu May  9 10:17:03 2024

Academic license - for non-commercial use only

Gurobi 8.1.1 (mac64, Python) logging started Thu May  9 10:22:16 2024

Academic license - for non-commercial use only

Gurobi 8.1.1 (mac64, Python) logging started Thu May  9 10:23:53 2024

Academic license - for non-commercial use only

Gurobi 8.1.1 (mac64, Python) logging started Thu May  9 10:25:22 2024

Academic license - for non-commercial use only

Gurobi 8.1.1 (mac64, Python) logging started Thu May  9 10:30:57 2024

Academic license - for non-commercial use only

Gurobi 8.1.1 (mac64, Python) logging started Thu May  9 11:18:57 2024

Academic license - for non-commercial use only

Gurobi 8.1.1 (mac64, Python) logging started Thu May  9 12:40:34 2024

Academic license - for non-commercial use only

Gurobi 8.1.1 (mac64, Python) logging started Thu May  9 12:44:45 2024

Academic license - for non-commercial use only

Gurobi 8.1.1 (mac64, Python) logging started Thu May  9 12:52:17 2024

Academic license - for non-commercial use only

Gurobi 8.1.1 (mac64, Python) logging started Thu May  9 12:59:18 2024

Academic license - for non-commercial use only

Gurobi 8.1.1 (mac64, Python) logging started Thu May  9 13:07:50 2024

Academic license - for non-commercial use only

Gurobi 8.1.1 (mac64, Python) logging started Thu May  9 13:08:59 2024

Academic license - for non-commercial use only

Gurobi 8.1.1 (mac64, Python) logging started Thu May  9 13:59:52 2024

Academic license - for non-commercial use only

Gurobi 8.1.1 (mac64, Python) logging started Thu May  9 14:07:05 2024

Academic license - for non-commercial use only

Gurobi 8.1.1 (mac64, Python) logging started Thu May  9 15:16:51 2024

Academic license - for non-commercial use only

Gurobi 8.1.1 (mac64, Python) logging started Thu May  9 15:23:59 2024

Academic license - for non-commercial use only

Gurobi 8.1.1 (mac64, Python) logging started Thu May  9 15:41:10 2024

Academic license - for non-commercial use only

Gurobi 8.1.1 (mac64, Python) logging started Thu May  9 15:41:33 2024

Academic license - for non-commercial use only

Gurobi 8.1.1 (mac64, Python) logging started Fri May 10 19:43:58 2024

Academic license - for non-commercial use only

Gurobi 8.1.1 (mac64, Python) logging started Sat May 11 01:26:51 2024

Academic license - for non-commercial use only

Gurobi 8.1.1 (mac64, Python) logging started Wed May 15 10:17:11 2024

Academic license - for non-commercial use only

Gurobi 8.1.1 (mac64, Python) logging started Wed May 15 23:34:15 2024

Academic license - for non-commercial use only

Gurobi 8.1.1 (mac64, Python) logging started Wed May 15 23:35:38 2024

Academic license - for non-commercial use only

Gurobi 8.1.1 (mac64, Python) logging started Wed May 15 23:44:59 2024

Academic license - for non-commercial use only

Gurobi 8.1.1 (mac64, Python) logging started Wed May 15 23:45:51 2024

Academic license - for non-commercial use only

Gurobi 8.1.1 (mac64, Python) logging started Wed May 15 23:48:18 2024

Academic license - for non-commercial use only

Gurobi 8.1.1 (mac64, Python) logging started Wed May 15 23:48:37 2024

Academic license - for non-commercial use only

Gurobi 8.1.1 (mac64, Python) logging started Wed May 15 23:54:12 2024

Academic license - for non-commercial use only

Gurobi 8.1.1 (mac64, Python) logging started Thu May 16 00:54:39 2024

Academic license - for non-commercial use only
